succeed=True
[CUDA] cuda: usage: 5.68 GB
0 :  {link #0 : 1}, {link #1 : 2}, {link #2 : 3},
1 :  {link #0 : 2}, {link #1 : 3}, {link #2 : 0},
2 :  {link #0 : 3}, {link #1 : 0}, {link #2 : 1},
3 :  {link #0 : 0}, {link #1 : 1}, {link #2 : 2},
0 :  {link #0 : 1}, {link #1 : 2}, {link #2 : 3},
1 :  {link #0 : 2}, {link #1 : 3}, {link #2 : 0},
2 :  {link #0 : 3}, {link #1 : 0}, {link #2 : 1},
3 :  {link #0 : 0}, {link #1 : 1}, {link #2 : 2},
0 :  {link #0 : 1}, {link #1 : 2}, {link #2 : 3},
1 :  {link #0 : 2}, {link #1 : 3}, {link #2 : 0},
2 :  {link #0 : 3}, {link #1 : 0}, {link #2 : 1},
3 :  {link #0 : 0}, {link #1 : 1}, {link #2 : 2},
0 : local 72, cpu 8 {link #0 : g1 24}, {link #1 : g2 24}, {link #2 : g3 24},
1 : local 72, cpu 8 {link #0 : g2 24}, {link #1 : g3 24}, {link #2 : g0 24},
2 : local 72, cpu 8 {link #0 : g3 24}, {link #1 : g0 24}, {link #2 : g1 24},
3 : local 72, cpu 8 {link #0 : g0 24}, {link #1 : g1 24}, {link #2 : g2 24},
0 : local 72, cpu 8 {link #0 : g1 24}, {link #1 : g2 24}, {link #2 : g3 24},
1 : local 72, cpu 8 {link #0 : g2 24}, {link #1 : g3 24}, {link #2 : g0 24},
2 : local 72, cpu 8 {link #0 : g3 24}, {link #1 : g0 24}, {link #2 : g1 24},
3 : local 72, cpu 8 {link #0 : g0 24}, {link #1 : g1 24}, {link #2 : g2 24},
0 : local 72, cpu 8 {link #0 : g1 24}, {link #1 : g2 24}, {link #2 : g3 24},
1 : local 72, cpu 8 {link #0 : g2 24}, {link #1 : g3 24}, {link #2 : g0 24},
2 : local 72, cpu 8 {link #0 : g3 24}, {link #1 : g0 24}, {link #2 : g1 24},
3 : local 72, cpu 8 {link #0 : g0 24}, {link #1 : g1 24}, {link #2 : g2 24},
0 :  {link #0 : 1}, {link #1 : 2}, {link #2 : 3},
1 :  {link #0 : 2}, {link #1 : 3}, {link #2 : 0},
2 :  {link #0 : 3}, {link #1 : 0}, {link #2 : 1},
3 :  {link #0 : 0}, {link #1 : 1}, {link #2 : 2},
0 : local 72, cpu 8 {link #0 : g1 24}, {link #1 : g2 24}, {link #2 : g3 24},
1 : local 72, cpu 8 {link #0 : g2 24}, {link #1 : g3 24}, {link #2 : g0 24},
2 : local 72, cpu 8 {link #0 : g3 24}, {link #1 : g0 24}, {link #2 : g1 24},
3 : local 72, cpu 8 {link #0 : g0 24}, {link #1 : g1 24}, {link #2 : g2 24},
Set parameter WLSAccessID
Set parameter WLSSecret
Set parameter LicenseID
Set parameter TimeLimit to value 200
Set parameter MIPGap to value 0.05
Set parameter LogFile to value "cppsolver.log"
Set parameter Threads to value 40
Academic license - for non-commercial use only - registered to xiaoniu.sxn@sjtu.edu.cn
Gurobi Optimizer version 9.5.1 build v9.5.1rc2 (linux64)
Thread count: 40 physical cores, 80 logical processors, using up to 40 threads
Academic license - for non-commercial use only - registered to xiaoniu.sxn@sjtu.edu.cn
Optimize a model with 3148 rows, 1025 columns and 9624 nonzeros
Model fingerprint: 0xf09eb00f
Variable types: 5 continuous, 1020 integer (1020 binary)
Coefficient statistics:
  Matrix range     [2e-03, 1e+03]
  Objective range  [1e+00, 1e+00]
  Bounds range     [1e+00, 1e+00]
  RHS range        [2e-01, 6e+02]
Found heuristic solution: objective 3006.8192539
Presolve removed 2392 rows and 226 columns
Presolve time: 0.01s
Presolved: 756 rows, 799 columns, 2256 nonzeros
Variable types: 0 continuous, 799 integer (799 binary)
Found heuristic solution: objective 2755.2041121

Root relaxation: objective 1.846517e+03, 599 iterations, 0.00 seconds (0.00 work units)

    Nodes    |    Current Node    |     Objective Bounds      |     Work
 Expl Unexpl |  Obj  Depth IntInf | Incumbent    BestBd   Gap | It/Node Time

     0     0 1846.51707    0   25 2755.20411 1846.51707  33.0%     -    0s
H    0     0                    1981.7255271 1846.51707  6.82%     -    0s
H    0     0                    1889.8363540 1846.51707  2.29%     -    0s

Explored 1 nodes (850 simplex iterations) in 0.02 seconds (0.01 work units)
Thread count was 40 (of 80 available processors)

Solution count 4: 1889.84 1981.73 2755.2 3006.82 

Optimal solution found (tolerance 5.00e-02)
Best objective 1.889836354018e+03, best bound 1.846517074836e+03, gap 2.2922%
coll_cache:optimal_local_rate=0.133125,0.101071,0.154302,0.14765,
coll_cache:optimal_remote_rate=0.384309,0.416363,0.363132,0.369783,
coll_cache:optimal_cpu_rate=0.482566,0.482566,0.482566,0.482566,
z=1889.84
test_result:init:feat_nbytes=375030526464
test_result:init:cache_nbytes=1125090816
test_result:init:feat_nbytes=375030526464
test_result:init:cache_nbytes=1125090816
test_result:init:feat_nbytes=375030526464
test_result:init:cache_nbytes=1125090816
test_result:init:feat_nbytes=375030526464
test_result:init:cache_nbytes=1125090816
    [Step(average) Profiler Level 1 E3 S135]
        L1  sample           0.003685 | send           0.000000
        L1  recv             0.000000 | copy           0.064099 | convert time 0.000000 | train  0.022639
        L1  feature nbytes    1.51 GB | label nbytes 0.00 Bytes
        L1  id nbytes      0.00 Bytes | graph nbytes 0.00 Bytes
        L1  miss nbytes     744.62 MB | remote nbytes  590.96 MB
        L1  num nodes               0 | num samples           0
    [Step(average) Profiler Level 2 E3 S135]
        L2  shuffle     0.000000 | core sample  0.000000 | id remap        0.000000
        L2  graph copy  0.000000 | id copy      0.000000 | cache feat copy 0.064099
        L2  last layer sample time 0.000000 | size 0.000000
    [Step(average) Profiler Level 3 E3 S135]
        L3  khop sample coo  0.000000 | khop sort coo      0.000000 | khop count edge     0.000000 | khop compact edge 0.000000
        L3  walk sample coo  0.000000 | walk topk total    0.000000 | walk topk step1     0.000000 | walk topk step2   0.000000
        L3  walk topk step3  0.000000 | walk topk step4    0.000000 | walk topk step5     0.000000
        L3  walk topk step6  0.000000 | walk topk step7    0.000000
        L3  remap unique     0.000000 | remap populate     0.000000 | remap mapnode       0.000000 | remap mapedge     0.000000
        L3  cache get_index  0.000651 | cache copy_index   0.000000 | cache extract_miss  0.000000
        L3  cache copy_miss  0.000000 | cache combine_miss 0.063395 | cache combine cache 0.000668 | cache combine remote 0.005083
        L3  label extract  0.000000
    [Profiler Level Percentiles E3 S135]
        p50.00_tail_logl2featcopy=0.064072
        p90.00_tail_logl2featcopy=0.064957
        p95.00_tail_logl2featcopy=0.065370
        p99.00_tail_logl2featcopy=0.066756
        p99.90_tail_logl2featcopy=0.072460
[CUDA] cuda: usage: 13.12 GB
Rank=1, Graph loaded.
!!!!Train_dataloader(with 34 items) enumerate latency: 0.5865135192871094
!!!!Train_data_list(with 34 items) enumerate latency: 6.67572021484375e-06, transfer latency: 0.5488574504852295
presamping
presamping takes 1.6039230823516846
Rank=2, Graph loaded.
!!!!Train_dataloader(with 34 items) enumerate latency: 0.543323278427124
!!!!Train_data_list(with 34 items) enumerate latency: 5.4836273193359375e-06, transfer latency: 0.5142207145690918
presamping
presamping takes 1.5402348041534424
Rank=3, Graph loaded.
!!!!Train_dataloader(with 34 items) enumerate latency: 0.5951080322265625
!!!!Train_data_list(with 34 items) enumerate latency: 5.4836273193359375e-06, transfer latency: 0.5499136447906494
presamping
presamping takes 1.5633811950683594
config:eval_tsp="2023-04-12 04:53:18"
config:num_worker=4
config:root_dir=/nvme/songxiaoniu/graph-learning/wholegraph
config:graph_name=mag240m-homo
config:epochs=4
config:batchsize=8000
config:skip_epoch=2
config:local_step=250
config:presc_epoch=2
config:neighbors=10,25
config:hiddensize=256
config:num_layer=2
config:model=sage
config:framework=dgl
config:dataloaderworkers=0
config:dropout=0.5
config:lr=0.003
config:use_nccl=False
config:use_amp=True
config:use_collcache=True
config:cache_percentage=0.002
config:cache_policy=coll_cache_asymm_link
config:omp_thread_num=40
config:unsupervised=False
config:classnum=153
config:global_barrier=<multiprocessing.synchronize.Barrier object at 0x7faee9f34430>
config:worker_id=0
creating_intra_node_communicator root=0, local_size=4, world_size=4
Rank=0, Graph loaded.
!!!!Train_dataloader(with 34 items) enumerate latency: 0.5697791576385498
!!!!Train_data_list(with 34 items) enumerate latency: 5.9604644775390625e-06, transfer latency: 0.5385329723358154
epoch=4 total_steps=136
presamping
presamping takes 1.6031339168548584
start training...
[Epoch 0], time=4.219051122665405, loss=4.9439215660095215
[Epoch 1], time=3.0800158977508545, loss=4.865177631378174
[Epoch 2], time=3.0752339363098145, loss=4.7963080406188965
[Epoch 3], time=3.0742454528808594, loss=4.73607063293457
|===========================================================================|
|                  PyTorch CUDA memory summary, device ID 0                 |
|---------------------------------------------------------------------------|
|            CUDA OOMs: 0            |        cudaMalloc retries: 0         |
|===========================================================================|
|        Metric         | Cur Usage  | Peak Usage | Tot Alloc  | Tot Freed  |
|---------------------------------------------------------------------------|
| Allocated memory      |   94713 KB |  784325 KB |  305506 MB |  305413 MB |
|       from large pool |   83096 KB |  772887 KB |  302534 MB |  302453 MB |
|       from small pool |   11616 KB |   13963 KB |    2971 MB |    2960 MB |
|---------------------------------------------------------------------------|
| Active memory         |   94713 KB |  784325 KB |  305506 MB |  305413 MB |
|       from large pool |   83096 KB |  772887 KB |  302534 MB |  302453 MB |
|       from small pool |   11616 KB |   13963 KB |    2971 MB |    2960 MB |
|---------------------------------------------------------------------------|
| GPU reserved memory   |    2890 MB |    2890 MB |    2890 MB |       0 B  |
|       from large pool |    2870 MB |    2870 MB |    2870 MB |       0 B  |
|       from small pool |      20 MB |      20 MB |      20 MB |       0 B  |
|---------------------------------------------------------------------------|
| Non-releasable memory |   15879 KB |    1108 MB |  303297 MB |  303281 MB |
|       from large pool |   13159 KB |    1105 MB |  300034 MB |  300021 MB |
|       from small pool |    2719 KB |       7 MB |    3262 MB |    3260 MB |
|---------------------------------------------------------------------------|
| Allocations           |      59    |      76    |   22834    |   22775    |
|       from large pool |      15    |      27    |    8927    |    8912    |
|       from small pool |      44    |      51    |   13907    |   13863    |
|---------------------------------------------------------------------------|
| Active allocs         |      59    |      76    |   22834    |   22775    |
|       from large pool |      15    |      27    |    8927    |    8912    |
|       from small pool |      44    |      51    |   13907    |   13863    |
|---------------------------------------------------------------------------|
| GPU reserved segments |      27    |      27    |      27    |       0    |
|       from large pool |      17    |      17    |      17    |       0    |
|       from small pool |      10    |      10    |      10    |       0    |
|---------------------------------------------------------------------------|
| Non-releasable allocs |      20    |      37    |    9376    |    9356    |
|       from large pool |       4    |      18    |    4796    |    4792    |
|       from small pool |      16    |      25    |    4580    |    4564    |
|---------------------------------------------------------------------------|
| Oversize allocations  |       0    |       0    |       0    |       0    |
|---------------------------------------------------------------------------|
| Oversize GPU segments |       0    |       0    |       0    |       0    |
|===========================================================================|

[TRAIN_TIME] train time is 13.449336 seconds
[EPOCH_TIME] 3.362334 seconds, maybe large due to not enough epoch skipped.
[EPOCH_TIME] 3.074844 seconds

